c Random generated cnf formula, satisfiable: true
p cnf 10 50
1 -3 -5 0
-7 1 -10 0
8 -6 -5 0
5 -8 7 0
-4 1 -9 0
10 -5 -1 0
-9 -10 3 0
9 10 1 0
6 -9 -1 0
-7 -10 8 0
7 10 -1 0
3 -1 7 0
-9 1 -6 0
-2 6 -4 0
-2 -4 -1 0
1 8 -7 0
3 4 -6 0
-8 4 9 0
-8 -10 7 0
7 2 -5 0
-4 8 1 0
3 1 -5 0
5 2 -3 0
7 -4 2 0
3 1 -7 0
6 -8 -1 0
4 -6 -8 0
10 3 9 0
10 -8 -5 0
10 1 -4 0
10 4 -2 0
2 5 -10 0
6 -10 -4 0
9 -1 6 0
-4 -7 9 0
10 -4 -8 0
2 -6 4 0
9 -7 8 0
-5 -8 -2 0
-7 4 -1 0
7 3 -9 0
-4 -1 9 0
4 1 -3 0
-8 3 1 0
-10 -5 -2 0
-1 -9 10 0
7 -8 2 0
1 10 -5 0
3 -7 6 0
-2 -6 -4 0
